(set-info :source |printed by MathSAT|)
(declare-fun call_synapse.flby () Int)
(declare-fun call_excludes3.excludes () Bool)
(declare-fun call_synapse.invalid_s.next () Int)
(declare-fun param_e_s2 () Bool)
(declare-fun mem_init_s () Int)
(declare-fun call_synapse.ite16.next () Int)
(declare-fun call_synapse.flby2.next () Int)
(declare-fun call_synapse.ite8.next () Int)
(declare-fun call_synapse.ite9.next () Int)
(declare-fun call_synapse.mem_init_s () Int)
(declare-fun flby () Bool)
(declare-fun param_e_s2.next () Bool)
(declare-fun call_synapse.ite6 () Int)
(declare-fun call_synapse.ite11 () Int)
(declare-fun call_synapse.ite18.next () Int)
(declare-fun call_synapse.ite14.next () Int)
(declare-fun call_synapse.ite4.next () Int)
(declare-fun call_Sofar.Sofar.next () Bool)
(declare-fun call_Sofar.flby.next () Bool)
(declare-fun call_synapse.ite6.next () Int)
(declare-fun call_synapse.garde_s2.next () Bool)
(declare-fun call_synapse.ite15.next () Int)
(declare-fun param_e_s3 () Bool)
(declare-fun call_synapse.ite5.next () Int)
(declare-fun param_e_s3.next () Bool)
(declare-fun call_synapse.ite7 () Int)
(declare-fun call_synapse.flby4 () Int)
(declare-fun call_synapse.ite2.next () Int)
(declare-fun call_synapse.flby3 () Int)
(declare-fun _OK_ () Bool)
(declare-fun env () Bool)
(declare-fun param_init_invalid_s.next () Int)
(declare-fun call_synapse.ite5 () Int)
(declare-fun call_synapse.flby3.next () Int)
(declare-fun call_synapse.flby4.next () Int)
(declare-fun call_synapse.ite13.next () Int)
(declare-fun call_synapse.ite7.next () Int)
(declare-fun invalid_s.next () Int)
(declare-fun call_synapse.garde_s1.next () Bool)
(declare-fun param_e_s1.next () Bool)
(declare-fun call_synapse.ite10 () Int)
(declare-fun mem_init_s.next () Int)
(declare-fun call_synapse.invalid_s () Int)
(declare-fun call_Sofar.Sofar () Bool)
(declare-fun env.next () Bool)
(declare-fun call_synapse.ite14 () Int)
(declare-fun call_synapse.ite10.next () Int)
(declare-fun call_synapse.flby2 () Int)
(declare-fun dirty_s.next () Int)
(declare-fun call_synapse.ite () Int)
(declare-fun call_synapse.ite3.next () Int)
(declare-fun call_synapse.ite18 () Int)
(declare-fun flby.next () Bool)
(declare-fun valid_s () Int)
(declare-fun call_Sofar.flby () Bool)
(declare-fun call_synapse.ite8 () Int)
(declare-fun call_synapse.dirty_s.next () Int)
(declare-fun _OK_.next () Bool)
(declare-fun call_excludes3.excludes.next () Bool)
(declare-fun dirty_s () Int)
(declare-fun call_synapse.ite13 () Int)
(declare-fun call_synapse.valid_s.next () Int)
(declare-fun call_synapse.garde_s3.next () Bool)
(declare-fun call_First.First () Int)
(declare-fun invalid_s () Int)
(declare-fun call_synapse.ite2 () Int)
(declare-fun call_synapse.ite17 () Int)
(declare-fun call_synapse.ite4 () Int)
(declare-fun call_synapse.dirty_s () Int)
(declare-fun call_synapse.ite12 () Int)
(declare-fun call_synapse.ite11.next () Int)
(declare-fun call_synapse.ite12.next () Int)
(declare-fun call_synapse.ite16 () Int)
(declare-fun call_synapse.valid_s () Int)
(declare-fun call_synapse.mem_init_s.next () Int)
(declare-fun call_First.First.next () Int)
(declare-fun call_First.flby () Int)
(declare-fun param_e_s1 () Bool)
(declare-fun call_synapse.ite.next () Int)
(declare-fun call_synapse.ite17.next () Int)
(declare-fun valid_s.next () Int)
(declare-fun call_First.flby.next () Int)
(declare-fun call_synapse.flby.next () Int)
(define-fun .def_907 () Bool (= call_First.flby.next call_First.First.next))
(define-fun .def_905 () Bool (= call_Sofar.flby.next call_Sofar.Sofar.next))
(define-fun .def_900 () Bool (and param_e_s3.next param_e_s2.next))
(define-fun .def_898 () Bool (and param_e_s3.next param_e_s1.next))
(define-fun .def_897 () Bool (or param_e_s1.next param_e_s2.next))
(define-fun .def_899 () Bool (or .def_897 .def_898))
(define-fun .def_901 () Bool (or .def_899 .def_900))
(define-fun .def_902 () Bool (not .def_901))
(define-fun .def_903 () Bool (= call_excludes3.excludes.next .def_902))
(define-fun .def_895 () Bool (= call_synapse.flby.next call_synapse.mem_init_s.next))
(define-fun .def_893 () Bool (= call_synapse.flby4.next call_synapse.dirty_s.next))
(define-fun .def_891 () Bool (= call_synapse.flby3.next call_synapse.valid_s.next))
(define-fun .def_889 () Bool (= call_synapse.flby2.next call_synapse.invalid_s.next))
(define-fun .def_885 () Bool (= call_synapse.ite16.next call_synapse.ite17.next))
(define-fun .def_886 () Bool (or param_e_s2.next .def_885))
(define-fun .def_882 () Bool (= call_synapse.ite14.next call_synapse.ite17.next))
(define-fun .def_873 () Bool (not param_e_s2.next))
(define-fun .def_883 () Bool (or .def_873 .def_882))
(define-fun .def_879 () Bool (= call_synapse.ite10.next call_synapse.ite11.next))
(define-fun .def_880 () Bool (or param_e_s2.next .def_879))
(define-fun .def_876 () Bool (= call_synapse.ite8.next call_synapse.ite11.next))
(define-fun .def_877 () Bool (or .def_873 .def_876))
(define-fun .def_872 () Bool (= call_synapse.ite2.next call_synapse.ite5.next))
(define-fun .def_874 () Bool (or .def_872 .def_873))
(define-fun .def_869 () Bool (= call_synapse.ite4.next call_synapse.ite5.next))
(define-fun .def_871 () Bool (or .def_869 param_e_s2.next))
(define-fun .def_875 () Bool (and .def_871 .def_874))
(define-fun .def_878 () Bool (and .def_875 .def_877))
(define-fun .def_881 () Bool (and .def_878 .def_880))
(define-fun .def_884 () Bool (and .def_881 .def_883))
(define-fun .def_887 () Bool (and .def_884 .def_886))
(define-fun .def_865 () Bool (= call_synapse.ite18.next call_synapse.ite17.next))
(define-fun .def_866 () Bool (or param_e_s1.next .def_865))
(define-fun .def_861 () Bool (= call_synapse.ite13.next call_synapse.ite18.next))
(define-fun .def_851 () Bool (not param_e_s1.next))
(define-fun .def_862 () Bool (or .def_851 .def_861))
(define-fun .def_858 () Bool (= call_synapse.ite12.next call_synapse.ite11.next))
(define-fun .def_859 () Bool (or param_e_s1.next .def_858))
(define-fun .def_854 () Bool (= call_synapse.ite7.next call_synapse.ite12.next))
(define-fun .def_855 () Bool (or .def_851 .def_854))
(define-fun .def_850 () Bool (= call_synapse.ite.next call_synapse.ite6.next))
(define-fun .def_852 () Bool (or .def_850 .def_851))
(define-fun .def_847 () Bool (= call_synapse.ite6.next call_synapse.ite5.next))
(define-fun .def_849 () Bool (or .def_847 param_e_s1.next))
(define-fun .def_853 () Bool (and .def_849 .def_852))
(define-fun .def_856 () Bool (and .def_853 .def_855))
(define-fun .def_860 () Bool (and .def_856 .def_859))
(define-fun .def_863 () Bool (and .def_860 .def_862))
(define-fun .def_867 () Bool (and .def_863 .def_866))
(define-fun .def_844 () Bool (= env.next call_Sofar.Sofar.next))
(define-fun .def_841 () Bool (= mem_init_s.next call_synapse.mem_init_s.next))
(define-fun .def_837 () Bool (= dirty_s.next call_synapse.dirty_s.next))
(define-fun .def_834 () Bool (= valid_s.next call_synapse.valid_s.next))
(define-fun .def_831 () Bool (= invalid_s.next call_synapse.invalid_s.next))
(define-fun .def_821 () Int (* (- 1) call_First.First.next))
(define-fun .def_822 () Int (+ dirty_s.next .def_821))
(define-fun .def_823 () Int (+ valid_s.next .def_822))
(define-fun .def_824 () Int (+ invalid_s.next .def_823))
(define-fun .def_825 () Bool (= .def_824 0))
(define-fun .def_816 () Bool (<= 2 dirty_s.next))
(define-fun .def_817 () Bool (not .def_816))
(define-fun .def_818 () Bool (and flby.next .def_817))
(define-fun .def_826 () Bool (and .def_818 .def_825))
(define-fun .def_813 () Bool (<= 1 valid_s.next))
(define-fun .def_814 () Bool (not .def_813))
(define-fun .def_811 () Bool (<= 1 dirty_s.next))
(define-fun .def_812 () Bool (not .def_811))
(define-fun .def_815 () Bool (or .def_812 .def_814))
(define-fun .def_827 () Bool (and .def_815 .def_826))
(define-fun .def_810 () Bool (not env.next))
(define-fun .def_828 () Bool (or .def_810 .def_827))
(define-fun .def_829 () Bool (= _OK_.next .def_828))
(define-fun .def_832 () Bool (and .def_829 .def_831))
(define-fun .def_835 () Bool (and .def_832 .def_834))
(define-fun .def_838 () Bool (and .def_835 .def_837))
(define-fun .def_842 () Bool (and .def_838 .def_841))
(define-fun .def_845 () Bool (and .def_842 .def_844))
(define-fun .def_868 () Bool (and .def_845 .def_867))
(define-fun .def_888 () Bool (and .def_868 .def_887))
(define-fun .def_890 () Bool (and .def_888 .def_889))
(define-fun .def_892 () Bool (and .def_890 .def_891))
(define-fun .def_894 () Bool (and .def_892 .def_893))
(define-fun .def_896 () Bool (and .def_894 .def_895))
(define-fun .def_904 () Bool (and .def_896 .def_903))
(define-fun .def_906 () Bool (and .def_904 .def_905))
(define-fun .def_908 () Bool (and .def_906 .def_907))
(define-fun .def_639 () Bool (= call_First.flby call_First.First))
(define-fun .def_637 () Bool (= call_Sofar.flby call_Sofar.Sofar))
(define-fun .def_632 () Bool (and param_e_s3 param_e_s2))
(define-fun .def_630 () Bool (and param_e_s3 param_e_s1))
(define-fun .def_629 () Bool (or param_e_s1 param_e_s2))
(define-fun .def_631 () Bool (or .def_629 .def_630))
(define-fun .def_633 () Bool (or .def_631 .def_632))
(define-fun .def_634 () Bool (not .def_633))
(define-fun .def_635 () Bool (= call_excludes3.excludes .def_634))
(define-fun .def_627 () Bool (= call_synapse.flby call_synapse.mem_init_s))
(define-fun .def_625 () Bool (= call_synapse.flby4 call_synapse.dirty_s))
(define-fun .def_623 () Bool (= call_synapse.flby3 call_synapse.valid_s))
(define-fun .def_621 () Bool (= call_synapse.flby2 call_synapse.invalid_s))
(define-fun .def_617 () Bool (= call_synapse.ite16 call_synapse.ite17))
(define-fun .def_618 () Bool (or param_e_s2 .def_617))
(define-fun .def_614 () Bool (= call_synapse.ite14 call_synapse.ite17))
(define-fun .def_605 () Bool (not param_e_s2))
(define-fun .def_615 () Bool (or .def_605 .def_614))
(define-fun .def_611 () Bool (= call_synapse.ite10 call_synapse.ite11))
(define-fun .def_612 () Bool (or param_e_s2 .def_611))
(define-fun .def_608 () Bool (= call_synapse.ite8 call_synapse.ite11))
(define-fun .def_609 () Bool (or .def_605 .def_608))
(define-fun .def_604 () Bool (= call_synapse.ite5 call_synapse.ite2))
(define-fun .def_606 () Bool (or .def_604 .def_605))
(define-fun .def_600 () Bool (= call_synapse.ite4 call_synapse.ite5))
(define-fun .def_602 () Bool (or .def_600 param_e_s2))
(define-fun .def_607 () Bool (and .def_602 .def_606))
(define-fun .def_610 () Bool (and .def_607 .def_609))
(define-fun .def_613 () Bool (and .def_610 .def_612))
(define-fun .def_616 () Bool (and .def_613 .def_615))
(define-fun .def_619 () Bool (and .def_616 .def_618))
(define-fun .def_596 () Bool (= call_synapse.ite18 call_synapse.ite17))
(define-fun .def_597 () Bool (or param_e_s1 .def_596))
(define-fun .def_592 () Bool (= call_synapse.ite13 call_synapse.ite18))
(define-fun .def_579 () Bool (not param_e_s1))
(define-fun .def_593 () Bool (or .def_579 .def_592))
(define-fun .def_588 () Bool (= call_synapse.ite12 call_synapse.ite11))
(define-fun .def_589 () Bool (or param_e_s1 .def_588))
(define-fun .def_584 () Bool (= call_synapse.ite7 call_synapse.ite12))
(define-fun .def_585 () Bool (or .def_579 .def_584))
(define-fun .def_578 () Bool (= call_synapse.ite6 call_synapse.ite))
(define-fun .def_580 () Bool (or .def_578 .def_579))
(define-fun .def_574 () Bool (= call_synapse.ite6 call_synapse.ite5))
(define-fun .def_576 () Bool (or .def_574 param_e_s1))
(define-fun .def_581 () Bool (and .def_576 .def_580))
(define-fun .def_586 () Bool (and .def_581 .def_585))
(define-fun .def_590 () Bool (and .def_586 .def_589))
(define-fun .def_594 () Bool (and .def_590 .def_593))
(define-fun .def_598 () Bool (and .def_594 .def_597))
(define-fun .def_570 () Bool (= env call_Sofar.Sofar))
(define-fun .def_567 () Bool (= call_synapse.mem_init_s mem_init_s))
(define-fun .def_564 () Bool (= dirty_s call_synapse.dirty_s))
(define-fun .def_561 () Bool (= valid_s call_synapse.valid_s))
(define-fun .def_558 () Bool (= invalid_s call_synapse.invalid_s))
(define-fun .def_548 () Int (* (- 1) call_First.First))
(define-fun .def_549 () Int (+ invalid_s .def_548))
(define-fun .def_550 () Int (+ valid_s .def_549))
(define-fun .def_551 () Int (+ dirty_s .def_550))
(define-fun .def_552 () Bool (= .def_551 0))
(define-fun .def_537 () Bool (<= 2 dirty_s))
(define-fun .def_538 () Bool (not .def_537))
(define-fun .def_539 () Bool (and flby .def_538))
(define-fun .def_553 () Bool (and .def_539 .def_552))
(define-fun .def_534 () Bool (<= 1 valid_s))
(define-fun .def_535 () Bool (not .def_534))
(define-fun .def_531 () Bool (<= 1 dirty_s))
(define-fun .def_532 () Bool (not .def_531))
(define-fun .def_536 () Bool (or .def_532 .def_535))
(define-fun .def_554 () Bool (and .def_536 .def_553))
(define-fun .def_529 () Bool (not env))
(define-fun .def_555 () Bool (or .def_529 .def_554))
(define-fun .def_556 () Bool (= _OK_ .def_555))
(define-fun .def_559 () Bool (and .def_556 .def_558))
(define-fun .def_562 () Bool (and .def_559 .def_561))
(define-fun .def_565 () Bool (and .def_562 .def_564))
(define-fun .def_568 () Bool (and .def_565 .def_567))
(define-fun .def_571 () Bool (and .def_568 .def_570))
(define-fun .def_599 () Bool (and .def_571 .def_598))
(define-fun .def_620 () Bool (and .def_599 .def_619))
(define-fun .def_622 () Bool (and .def_620 .def_621))
(define-fun .def_624 () Bool (and .def_622 .def_623))
(define-fun .def_626 () Bool (and .def_624 .def_625))
(define-fun .def_628 () Bool (and .def_626 .def_627))
(define-fun .def_636 () Bool (and .def_628 .def_635))
(define-fun .def_638 () Bool (and .def_636 .def_637))
(define-fun .def_640 () Bool (and .def_638 .def_639))
(define-fun .def_909 () Bool (and .def_640 .def_908))
(define-fun .def_806 () Bool (= call_First.First call_First.flby.next))
(define-fun .def_798 () Bool (<= 0 param_init_invalid_s.next))
(define-fun .def_800 () Bool (and .def_798 call_excludes3.excludes.next))
(define-fun .def_801 () Bool (or call_Sofar.Sofar .def_800))
(define-fun .def_803 () Bool (= .def_801 call_Sofar.flby.next))
(define-fun .def_795 () Bool (= call_synapse.ite18.next call_synapse.flby4.next))
(define-fun .def_791 () Bool (= call_synapse.ite12.next call_synapse.flby3.next))
(define-fun .def_787 () Bool (= call_synapse.ite6.next call_synapse.flby2.next))
(define-fun .def_783 () Bool (= call_synapse.mem_init_s call_synapse.flby.next))
(define-fun .def_761 () Bool (<= 1 call_synapse.invalid_s))
(define-fun .def_779 () Bool (= call_synapse.garde_s3.next .def_761))
(define-fun .def_776 () Bool (= call_synapse.ite9.next 0))
(define-fun .def_725 () Bool (not call_synapse.garde_s3.next))
(define-fun .def_777 () Bool (or .def_725 .def_776))
(define-fun .def_774 () Bool (= call_synapse.ite15.next 1))
(define-fun .def_775 () Bool (or .def_725 .def_774))
(define-fun .def_778 () Bool (and .def_775 .def_777))
(define-fun .def_780 () Bool (and .def_778 .def_779))
(define-fun .def_770 () Bool (<= 1 call_synapse.valid_s))
(define-fun .def_771 () Bool (= call_synapse.garde_s2.next .def_770))
(define-fun .def_767 () Bool (= call_synapse.ite8.next 0))
(define-fun .def_710 () Bool (not call_synapse.garde_s2.next))
(define-fun .def_768 () Bool (or .def_710 .def_767))
(define-fun .def_765 () Bool (= call_synapse.ite14.next 1))
(define-fun .def_766 () Bool (or .def_710 .def_765))
(define-fun .def_769 () Bool (and .def_766 .def_768))
(define-fun .def_772 () Bool (and .def_769 .def_771))
(define-fun .def_762 () Bool (= call_synapse.garde_s1.next .def_761))
(define-fun .def_759 () Bool (= call_synapse.ite13.next 0))
(define-fun .def_697 () Bool (not call_synapse.garde_s1.next))
(define-fun .def_760 () Bool (or .def_697 .def_759))
(define-fun .def_763 () Bool (and .def_760 .def_762))
(define-fun .def_755 () Bool (= call_synapse.dirty_s call_synapse.ite15.next))
(define-fun .def_756 () Bool (or call_synapse.garde_s3.next .def_755))
(define-fun .def_752 () Bool (= call_synapse.dirty_s call_synapse.ite13.next))
(define-fun .def_753 () Bool (or call_synapse.garde_s1.next .def_752))
(define-fun .def_749 () Bool (= call_synapse.dirty_s call_synapse.ite14.next))
(define-fun .def_750 () Bool (or call_synapse.garde_s2.next .def_749))
(define-fun .def_754 () Bool (and .def_750 .def_753))
(define-fun .def_757 () Bool (and .def_754 .def_756))
(define-fun .def_744 () Bool (= call_synapse.valid_s call_synapse.ite9.next))
(define-fun .def_745 () Bool (or call_synapse.garde_s3.next .def_744))
(define-fun .def_741 () Bool (= call_synapse.valid_s call_synapse.ite8.next))
(define-fun .def_742 () Bool (or call_synapse.garde_s2.next .def_741))
(define-fun .def_735 () Int (* (- 1) call_synapse.ite7.next))
(define-fun .def_736 () Int (+ call_synapse.valid_s .def_735))
(define-fun .def_737 () Bool (= .def_736 (- 1)))
(define-fun .def_738 () Bool (or .def_697 .def_737))
(define-fun .def_733 () Bool (= call_synapse.valid_s call_synapse.ite7.next))
(define-fun .def_734 () Bool (or call_synapse.garde_s1.next .def_733))
(define-fun .def_739 () Bool (and .def_734 .def_738))
(define-fun .def_743 () Bool (and .def_739 .def_742))
(define-fun .def_746 () Bool (and .def_743 .def_745))
(define-fun .def_728 () Bool (= call_synapse.invalid_s call_synapse.ite3.next))
(define-fun .def_729 () Bool (or call_synapse.garde_s3.next .def_728))
(define-fun .def_716 () Int (* (- 1) call_synapse.ite3.next))
(define-fun .def_720 () Int (+ call_synapse.dirty_s .def_716))
(define-fun .def_721 () Int (+ call_synapse.valid_s .def_720))
(define-fun .def_722 () Int (+ call_synapse.invalid_s .def_721))
(define-fun .def_723 () Bool (= .def_722 1))
(define-fun .def_726 () Bool (or .def_723 .def_725))
(define-fun .def_713 () Bool (= call_synapse.invalid_s call_synapse.ite2.next))
(define-fun .def_714 () Bool (or call_synapse.garde_s2.next .def_713))
(define-fun .def_701 () Int (* (- 1) call_synapse.ite2.next))
(define-fun .def_705 () Int (+ call_synapse.dirty_s .def_701))
(define-fun .def_706 () Int (+ call_synapse.valid_s .def_705))
(define-fun .def_707 () Int (+ call_synapse.invalid_s .def_706))
(define-fun .def_708 () Bool (= .def_707 1))
(define-fun .def_711 () Bool (or .def_708 .def_710))
(define-fun .def_691 () Int (* (- 1) call_synapse.ite.next))
(define-fun .def_694 () Int (+ call_synapse.dirty_s .def_691))
(define-fun .def_695 () Int (+ call_synapse.invalid_s .def_694))
(define-fun .def_696 () Bool (= .def_695 1))
(define-fun .def_698 () Bool (or .def_696 .def_697))
(define-fun .def_688 () Bool (= call_synapse.invalid_s call_synapse.ite.next))
(define-fun .def_690 () Bool (or .def_688 call_synapse.garde_s1.next))
(define-fun .def_699 () Bool (and .def_690 .def_698))
(define-fun .def_712 () Bool (and .def_699 .def_711))
(define-fun .def_715 () Bool (and .def_712 .def_714))
(define-fun .def_727 () Bool (and .def_715 .def_726))
(define-fun .def_730 () Bool (and .def_727 .def_729))
(define-fun .def_673 () Int (* (- 1) dirty_s.next))
(define-fun .def_670 () Int (* (- 1) valid_s.next))
(define-fun .def_678 () Int (+ .def_670 .def_673))
(define-fun .def_668 () Int (* (- 1) invalid_s.next))
(define-fun .def_679 () Int (+ .def_668 .def_678))
(define-fun .def_680 () Int (+ invalid_s .def_679))
(define-fun .def_681 () Int (+ valid_s .def_680))
(define-fun .def_682 () Int (+ dirty_s .def_681))
(define-fun .def_683 () Bool (= .def_682 0))
(define-fun .def_685 () Bool (= .def_683 flby.next))
(define-fun .def_664 () Bool (= call_synapse.dirty_s call_synapse.ite16.next))
(define-fun .def_665 () Bool (or param_e_s3.next .def_664))
(define-fun .def_661 () Bool (= call_synapse.ite15.next call_synapse.ite16.next))
(define-fun .def_648 () Bool (not param_e_s3.next))
(define-fun .def_662 () Bool (or .def_648 .def_661))
(define-fun .def_656 () Bool (= call_synapse.valid_s call_synapse.ite10.next))
(define-fun .def_657 () Bool (or param_e_s3.next .def_656))
(define-fun .def_653 () Bool (= call_synapse.ite9.next call_synapse.ite10.next))
(define-fun .def_654 () Bool (or .def_648 .def_653))
(define-fun .def_647 () Bool (= call_synapse.ite4.next call_synapse.ite3.next))
(define-fun .def_649 () Bool (or .def_647 .def_648))
(define-fun .def_643 () Bool (= call_synapse.invalid_s call_synapse.ite4.next))
(define-fun .def_645 () Bool (or .def_643 param_e_s3.next))
(define-fun .def_650 () Bool (and .def_645 .def_649))
(define-fun .def_655 () Bool (and .def_650 .def_654))
(define-fun .def_658 () Bool (and .def_655 .def_657))
(define-fun .def_663 () Bool (and .def_658 .def_662))
(define-fun .def_666 () Bool (and .def_663 .def_665))
(define-fun .def_686 () Bool (and .def_666 .def_685))
(define-fun .def_731 () Bool (and .def_686 .def_730))
(define-fun .def_747 () Bool (and .def_731 .def_746))
(define-fun .def_758 () Bool (and .def_747 .def_757))
(define-fun .def_764 () Bool (and .def_758 .def_763))
(define-fun .def_773 () Bool (and .def_764 .def_772))
(define-fun .def_781 () Bool (and .def_773 .def_780))
(define-fun .def_784 () Bool (and .def_781 .def_783))
(define-fun .def_788 () Bool (and .def_784 .def_787))
(define-fun .def_792 () Bool (and .def_788 .def_791))
(define-fun .def_796 () Bool (and .def_792 .def_795))
(define-fun .def_804 () Bool (and .def_796 .def_803))
(define-fun .def_807 () Bool (and .def_804 .def_806))
(define-fun .def_910 () Bool (and .def_807 .def_909))
(assert .def_910)
